['(Tag) D: False', '(Tag) Interstitial: 
   1.00000000003788     
   -18.5601659800000007    0.0000000000000000    0.0000000000000000
     0.0000000000000000    0.0000000000000000  -20.2520107200000012
     9.2800829900000004  -16.0735752299999994    0.0000000000000000
   Si   Si   C    C 
   143   144   144   143
Direct
 -0.0000060344858422  0.8749711719090384 -0.0000040344730469
  0.0000589275428084  0.6251077270603631  0.0000543038678699
  0.0000269770320453  0.3749115327895365  0.9999926569638301
  0.0000247357018097  0.1250920943699564  0.0000198155224094
 -0.0000046552235988  0.8750935896605667  0.8333390599383280
  0.0000369375257277  0.6250355062667577  0.8333380169071389
  0.0000686252104507  0.3750616191410436  0.8333883410686842
  0.0000122855736929  0.1250124703393778  0.8333287506674496
 -0.0000056073818210  0.8750763939204723  0.6666773810242553
 -0.0000281468447027  0.6250302267811438  0.6665949865467202
  0.9998970426491894  0.3750210018696958  0.6667689038266169
  0.9999664516556974  0.1250168389848932  0.6665883405368950
  1.0000072270905442  0.8749656019181614  0.5000155463233908
  1.0000029255026115  0.6251067929472954  0.5000033983879663
  0.9999817746089856  0.3749031691392757  0.4999663590983939
  0.9999935261940385  0.1250812085677102  0.4999892954464982
  0.0000054324946065  0.8750883463858026  0.3333200306591491
  0.0000238282902059  0.6249969018939444  0.3333556799248382
  0.0000883472982428  0.3750863589019279  0.3333525151817520
  0.0000369794320067  0.1250385105284251  0.3333658527148586
  0.0000127859622441  0.8750870314677537  0.1666776302178545
  0.0000606480310883  0.6250067684214311  0.1667192785935385
  0.0001533339136379  0.3750895623874292  0.1667826084473436
  0.0000859976057627  0.1250456800155089  0.1667351853314023
  0.8333441717440462  0.8750784879417884  0.0000048447662115
  0.8334154493517016  0.6250589085616568  0.0001186909604378
  0.8334884118960232  0.3750256828157745  0.0002271349601957
  0.8333946350957470  0.1250136175290029  0.0000874536786392
  0.6666597142539568  0.8750782755052622  0.0000050222342001
  0.6667052318586990  0.6250591962735506  0.0001174775003948
  0.6667389443484827  0.3750250896599008  0.0002266174168213
  0.6666923012282603  0.1250098121171752  0.0000903182948356
  0.5000026026303356  0.8749708946868183 -0.0000034016111045
  0.4999965775495409  0.6251056571994908  0.0000545280760656
  0.4999649672270688  0.3749122626157538  0.9999925767564589
  0.4999950749699837  0.1250916369762002  0.0000194113395830
  0.3333297150450120  0.8750896329186939  0.0000191108198169
  0.3333475953515143  0.6250001571350363  0.0000456459778793
  0.3333268158096787  0.3750677347329809  0.0000114334062964
  0.3333397100863948  0.1250300811556104  0.0000400339902187
  0.1666891097272733  0.8750897938640003  0.0000193763512092
  0.1666988809963709  0.6250001520763301  0.0000461091396032
  0.1666832114650037  0.3750678877860572  0.0000111166699981
  0.1667002033838982  0.1250300580609869  0.0000402131247585
  0.8333279328959494  0.8750771886518081  0.8333153311128833
  0.8334409001256806  0.6250820414540227  0.8334738256800418
  0.8336754409819442  0.3749053927920388  0.8335378318543950
  0.8332611899363281  0.1251555731161065  0.8332986379924664
  0.8333261113280618  0.8750531607501876  0.6666681013811759
  0.8333320812061557  0.6250063766648765  0.6665865400477624
  0.8329359004336986  0.3748509432963382  0.6669304573796195
  0.8332424620672473  0.1251348414427377  0.6665437118667223
  0.8333245238109045  0.8750837262699599  0.4999959037496034
  0.8333043693533626  0.6249792218586299  0.4999652789328370
  0.8332222562409980  0.3749631992735989  0.4999041694534164
  0.8333416655677991  0.1250270685287967  0.4999653152459396
  0.8333151782143923  0.8750858781991859  0.3333195003385027
  0.8333334644229352  0.6249964420384382  0.3333570537108864
  0.8332662573531763  0.3750861630236891  0.3333537772907496
  0.8333290842962578  0.1250385036757524  0.3333674364904552
  0.8333339889497772  0.8750800749145977  0.1666696015945329
  0.8333554095177449  0.6249883017373766  0.1666945904169533
  0.8333601061856160  0.3750375996748025  0.1667073183862037
  0.8333559990243786  0.1249901587078767  0.1667009507225682
  0.6666714269658501  0.8750414906797894  0.8333430757440379
  0.6667728839024155  0.6252145881399683  0.8335446643402287
  0.6671979525960534  0.3747464158282087  0.8343955883678803
  0.6666748207201274  0.1250193080395366  0.8333496226674040
  0.6666369787272513  0.8751258496833229  0.6666369766306428
  0.6663815398493521  0.6252444233870577  0.6665412350215222
  0.6675001284594876  0.3755630493796859  0.6684354988221008
  0.6665203817561535  0.1250541205685466  0.6663963196911503
  0.6666237616222201  0.8751012017338033  0.4999815168878358
  0.6667021976456541  0.6249671811400649  0.4999126533602340
  0.6649048050710893  0.3744492776463325  0.4993980162014096
  0.6666911890075021  0.1251522031830942  0.5000892091418428
  0.6666618312938170  0.8750296940224342  0.3333336264295932
  0.6666504505669489  0.6249669157653743  0.3333500849170363
  0.6662619016541026  0.3750563998864154  0.3334849064517391
  0.6666161894576881  0.1250595573680807  0.3333764333920868
  0.6666637104806099  0.8750867548500129  0.1666763644165570
  0.6666589968560704  0.6250068973403773  0.1667208298254937
  0.6666271971625275  0.3750886200538618  0.1667843546864089
  0.6666492944736243  0.1250458034200757  0.1667358403136374
  0.4999873883948158  0.8750774589854667  0.8333150888429716
  0.5000328910513806  0.6250825825769125  0.8334740427408321
  0.4998611330083653  0.3749049632437467  0.8335374009645581
  0.5000379447092071  0.1251567284052943  0.8332978843546757
  0.4999991600889128  0.8751265559341658  0.6666368909280150
  0.5001591853322703  0.6252466101835822  0.6665412655823809
  0.5009322014534828  0.3755621857561524  0.6684363380289478
  0.4998763806183557  0.1250564066422107  0.6663939584790939
  0.4999742789473194  0.8749917181839311  0.4999502587558075
  0.5003334182051408  0.6245786716562611  0.5006649314680910
  0.4999858869819851  0.1259863978990031  0.4999686846902964
  0.4999857983583373  0.8750673381210814  0.3333521089248621
  0.4999714222945909  0.6248196080866231  0.3333455241526641
  0.4994949019134858  0.3747385222693496  0.3339822568544233
  0.4998304066880003  0.1251224578622559  0.3332894183864202
  0.5000054338098243  0.8750824176593848  0.1666885738594703
  0.4999900024382685  0.6249447717630014  0.1667428108255674
  0.4999231834753928  0.3750457978820564  0.1665519892219616
  0.4999523226545671  0.1250666242455626  0.1666856594851093
  0.3333439802998335  0.8750933099625176  0.8333393028463948
  0.3333015813154746  0.6250352274572107  0.8333380765970168
  0.3333186079350968  0.3750597856744664  0.8333912904122625
  0.3333166899463635  0.1250127754162942  0.8333287758022242
  0.3333375044179479  0.8750554876933953  0.6666670561485671
  0.3332551696549996  0.6250067738974590  0.6665871317046839
  0.3339935097975076  0.3748520261687055  0.6669317538177753
  0.3333024398169253  0.1251350765517806  0.6665437782770238
  0.3333572110500168  0.8751018922495158  0.4999814236404685
  0.3332093008709979  0.6249695152580904  0.4999127659670543
  0.3344938523655523  0.3744485061056562  0.4993999727324814
  0.3334021443245370  0.1251547954974193  0.5000898698736603
  0.3333658744832171  0.8750674270458046  0.3333524632526154
  0.3333751720295556  0.6248259074509568  0.3333359625121819
  0.3344885484551332  0.3747414092985984  0.3339893866000375
  0.3334568963824970  0.1251220263946695  0.3332898400106944
  0.3333264228438294  0.8750514567654208  0.1666534096784322
  0.3333477626725326  0.6249585112385787  0.1666905528079176
  0.3333344308631009  0.3750354032382127  0.1666696752408529
  0.3333622903950744  0.1250206842671709  0.1667253049319226
  0.1666708121560271  0.8750416316557184  0.8333416345878899
  0.1666697703877668  0.6249930933326704  0.8333382479324107
  0.1666685321416151  0.3750162725379519  0.8333409737344333
  0.1666658329506492  0.1249782832554979  0.8333316617721567
  0.1666831360948685  0.8750768656787671  0.6666780310274760
  0.1666258775750915  0.6250305459998958  0.6665926663293358
  0.1668706460691010  0.3750191342943684  0.6667729335615296
  0.1666223264029910  0.1250168959533788  0.6665881747474840
  0.1666759753308867  0.8750890525326367  0.4999916234166024
  0.1666582250629647  0.6249793446370945  0.4999654981158657
  0.1666830285822324  0.3749628078603724  0.4999057656308585
  0.1666248812365794  0.1250263553549101  0.4999665000604835
  0.1666707076322484  0.8750300741810555  0.3333334047929238
  0.1667005200366789  0.6249663133728783  0.3333498382479674
  0.1672218965878418  0.3750566178181454  0.3334843879473012
  0.1667602717109369  0.1250589729896398  0.3333748728977513
  0.1666828900916003  0.8750822219259541  0.1666892222640263
  0.1667527168811093  0.6249425848659756  0.1667425977542421
  0.1666262720237592  0.3750454956307622  0.1665518031599992
  0.1667330861749887  0.1250666339401281  0.1666862999920226
  0.8888883488479811  0.0000467169225751  0.9444253108615676
  0.8888979996942794  0.0000687178819774  0.7778132443662337
  0.8888805678673026  0.0000841589934550  0.6110720856291155
  0.8888652933414761  0.0000135034338031  0.4444302468298701
  0.8889187014142761  0.0000388021556303  0.2778375299651280
  0.8889445617605434  0.0000340894826937  0.1111124775910216
  0.7222193088969910  0.0000340096353992  0.9444374761709228
  0.7221717629945604  0.0000195775084473  0.7777362672271600
  0.7220940874197503  0.0001011756289307  0.6110285323500840
  0.7221462129592614  0.0000388002415737  0.4443943314047684
  0.7221953789318837  0.0000370537517892  0.2778034046296206
  0.7221685256965009  0.0000332049968282  0.1111128523659640
  0.5555364821968890  0.0000465225399481  0.9444242943173539
  0.5555646647012267  0.0000206180635284  0.7777356559782836
  0.5554605049356089  0.0001207751641439  0.6109205615993917
  0.5554581935737467  0.0001657206384509  0.4444601060912578
  0.5555525169429255  0.0000221377280765  0.2778245276362418
  0.5555620790656668  0.0000278296760245  0.1111493189743055
  0.3888753730803386  0.0000244156230336  0.9444566463315723
  0.3889156290635509  0.0000691361392363  0.7778132521446792
  0.3889348257385750  0.0001016249411021  0.6110280329164353
  0.3890032296783270  0.0001658944848556  0.4444600470059217
  0.3889405006661391  0.0000964934113054  0.2778812590827662
  0.3889237359224571  0.0000440891229929  0.1111141343833979
  0.2222244349438048  0.0000222474850831  0.9444491210795175
  0.2222118500080437  0.0000229781418219  0.7777863627178611
  0.2221856755018975  0.0000872610341079  0.6110684606142794
  0.2222481192185266  0.0000382209743462  0.4443923893714474
  0.2222720575268405  0.0000223835776075  0.2778251433910238
  0.2221893329438246  0.0000462450907492  0.1111220823847158
  0.0555813783857930  0.0000244302694690  0.9444565206859747
  0.0555743553118302  0.0000229380481930  0.7777859740656715
  0.0555468670988048  0.0000158136098390  0.6110934507401173
  0.0555642430235943  0.0000148728776345  0.4444294301195270
  0.0556085323320597  0.0000365415666243  0.2778037213457452
  0.0555881608445654  0.0000277014547137  0.1111492912621199
  0.9444761445612141  0.7500378032682524  0.8888987760390891
  0.9445054046546277  0.2499975612936478  0.8889031227253215
  0.9443812579776567  0.7500076448165283  0.7221879926069386
  0.9443466509145676  0.2499803011437612  0.7221778134148301
  0.9444294510960235  0.7500417405405644  0.5555407809942547
  0.9443843374099558  0.2500050478154794  0.5554771897890841
  0.9444343481722695  0.7500357779464610  0.3888683544446588
  0.9444297794092152  0.2500395298407856  0.3888578474663290
  0.9443877217958906  0.7499965652102509  0.2221988741791285
  0.9444405241598770  0.2500093592282572  0.2222319016104662
  0.9444733730231923  0.7500358435866111  0.0555841776912228
  0.9445308718035919  0.2500247406655711  0.0556396162277718
  0.8890555229392549  0.5000574246772566  0.9446050633224220
  0.8889513390738102  0.5000877493863399  0.7778227627979258
  0.8888248932440183  0.5000732908886294  0.6109466628231921
  0.8888066299808378  0.4999979992216422  0.4444271718996733
  0.8889292790754897  0.5000154192111362  0.2778567688442730
  0.8890151583829289  0.5000244321463536  0.1111933058184680
  0.7778595683462906  0.7500504033504255  0.8889520566630944
  0.7778584200541244  0.2499263919968533  0.8890661209148585
  0.7777516517825039  0.7499956182176510  0.7221505929932084
  0.7776704615353039  0.2504430810524094  0.7221081512797620
  0.7778282844782437  0.7500159355326003  0.5555876372959252
  0.7775563451657349  0.2499478554548207  0.5552812791904492
  0.7777953601468848  0.7500111593595178  0.3888896647682299
  0.7776643779545926  0.2500447773461788  0.3888630192278861
  0.7778105888745931  0.7499977641062177  0.2221998036746763
  0.7777928022573427  0.2500096535878742  0.2222328426122055
  0.7778336731115446  0.7500242052642950  0.0556677325700050
  0.7778504909349084  0.2499857713534882  0.0557010020019930
  0.7223800757760480  0.5000581874234623  0.9447592189364111
  0.7227531258325105  0.5003171768986328  0.7786980524346717
  0.7220773170504786  0.5002828487749712  0.6105657536627968
  0.7219012526837004  0.4997602696958651  0.4444857082641263
  0.7221303169716523  0.4999437937618753  0.2778984815793861
  0.7221795654596007  0.5000239371016441  0.1111942395683757
  0.6110929337460970  0.7500508235099999  0.8889520631899613
  0.6112065434409484  0.2499260249179853  0.8890645121573305
  0.6111004305689650  0.7501467733223582  0.7222004796439516
  0.6111513701175664  0.2499138072936507  0.7223032006182615
  0.6110742251031849  0.7500429932592151  0.5555052301530774
  0.6098214470939664  0.2510467849866869  0.5542948479002582
  0.6110665159314496  0.7499673717086706  0.3888607608995050
  0.6107736405240172  0.2501285727521520  0.3887907261121540
  0.6110742441010333  0.7500007626143826  0.2221971918378054
  0.6110146552062018  0.2500712652851904  0.2222780160215753
  0.6111196540459752  0.7500476492591734  0.0556002535864531
  0.6111092639108410  0.2500243239979733  0.0556391704353244
  0.5555496903108958  0.5000571500924499  0.9446044527798306
  0.5559439751427524  0.5003206313384531  0.7786983176946863
  0.5562877796040415  0.5005863450230945  0.6125720829700059
  0.5554886580227599  0.4985816454264048  0.4442990723934571
  0.5554272745272802  0.4997185503237905  0.2781492960483551
  0.5555559388933721  0.5000026385655822  0.1112699716517953
  0.4444114187699346  0.7500415669813856  0.8888937047200501
  0.4443832722709468  0.2500006920076830  0.8888974093471188
  0.4443984663754628  0.7499969983263017  0.7221515256611083
  0.4444348368251158  0.2504436415428413  0.7221055329127749
  0.4444342540995005  0.7500410915654985  0.5555087632082212
  0.4444821720017785  0.2510529599562593  0.5542945528544482
  0.4445009553614134  0.7498664717625680  0.3890022978150706
  0.4445909542840399  0.2508383807200154  0.3891749434919792
  0.4443378189697824  0.7499715570686338  0.2221696781057059
  0.4444054329621412  0.2500405165849336  0.2222939746731625
  0.4444348639405037  0.7500181293994554  0.0555815589470194
  0.4444372151060145  0.2500297779570771  0.0555964535688252
  0.3888691365889051  0.5000194158645376  0.9444814875141810
  0.3888659413684038  0.5000855327420924  0.7778164721155547
  0.3884940650880626  0.5002866317019030  0.6105697205029916
  0.3888075226495668  0.4985755812043488  0.4442984637124946
  0.3889860842073645  0.4998550476566737  0.2779728090388499
  0.3889408606206930  0.4999650988273276  0.1111663524037445
  0.2778148180466160  0.7500191297691523  0.8889345588804776
  0.2777997148057171  0.2499928644303008  0.8889520420694789
  0.2778079691231878  0.7500073146802728  0.7221871808238940
  0.2778313969752164  0.2499797593663969  0.7221785020256640
  0.2777633556019654  0.7500146563117402  0.5555850981963463
  0.2777294800571418  0.2499480519963261  0.5552798053213194
  0.2777947837519086  0.7499688494117611  0.3888607588170677
  0.2780203454303464  0.2501299444041033  0.3887927556017997
  0.2778309238328475  0.7499713068399849  0.2221690699291125
  0.2778752546873373  0.2500386929788493  0.2222931377691672
  0.2778301603352532  0.7499962432711491  0.0556601086462117
  0.2778552339525635  0.2500023982721135  0.0557128294253921
  0.2222311239281725  0.5000006385926083  0.9444626139914128
  0.2221887776825024  0.5000314782504455  0.7777692076552889
  0.2221209238107568  0.5000721191408072  0.6109457752564413
  0.2225841506313959  0.4997626256847678  0.4444881583343822
  0.2227247578953670  0.4997163132786557  0.2781496271770135
  0.2222265101251213  0.4999654538179050  0.1111661529079847
  0.1111199725807854  0.7500191733046209  0.8889344207034803
  0.1111511462766171  0.2499937243636284  0.8889526256184572
  0.1110948401281392  0.7500239814990047  0.7221892610543899
  0.1111007227479662  0.2499874982556745  0.7222024834049939
  0.1111134026048514  0.7500396947501342  0.5555394032158394
  0.1110893646912462  0.2499999968793407  0.5554832647267344
  0.1110938473991042  0.7500115493699504  0.3888894521810991
  0.1111988238781152  0.2500478672658856  0.3888627654030307
  0.1111232484712520  0.7499997254456604  0.2221970850693538
  0.1112606438979143  0.2500720455686455  0.2222768925779547
  0.1111477909892925  0.7500176805445579  0.0555827445595017
  0.1111580116894949  0.2500296383441664  0.0555961088350884
  0.0556119390590567  0.5000196524128269  0.9444820968134491
  0.0555801489225827  0.5000317177752474  0.7777690943748681
  0.0555198212392926  0.5000463432163512  0.6110314891894807
  0.0556177183211964  0.4999971129540639  0.4444216105985754
  0.0557688302063597  0.4999442834095749  0.2778979086266693
  0.0557183496873487  0.5000010909727250  0.1112717646435380
  0.9999888438096942  0.7812774435899968  0.9999847691241194
  1.0000246735169145  0.5313348642428236  1.0000220256651162
  0.9998934843197871  0.2812937002283482  0.9998867439188242
  0.9999757291118218  0.0313327483966254  0.9999752877624565
  0.9999807125234685  0.7813022345806842  0.8333022587297694
  0.9999645013280030  0.5312870104251496  0.8333109727077606
  0.9999158102255126  0.2813369157590185  0.8332530475217659
  1.0000002286290248  0.0313026253327812  0.8333315483299085
  0.9999751053977161  0.7813082775228259  0.6666784494638135
  0.9999669121061486  0.5312764041066190  0.6666540616590181
  0.9999181908801149  0.2813158292002325  0.6666649116891250
  1.0000073776733829  0.0312997805779564  0.6666849085525843
  0.0000004390476733  0.7812840385482481  0.5000027556511060
 -0.0000106789007183  0.5313322877586178  0.4999792353858822
  0.0000214195221727  0.2812781388055773  0.5000392676396119
 -0.0000020735868934  0.0313158054831934  0.4999963809690526
  0.9999802596927331  0.7813160936286770  0.3333056066886426
  1.0000307739953238  0.5312936013314515  0.3333258293696401
  1.0000063543684512  0.2813230914297136  0.3333284251399363
  1.0000060178212720  0.0312954221318539  0.3333302430005676
  0.9999829412322739  0.7813142406871416  0.1666762807344857
  1.0000438443577249  0.5312950522663480  0.1667085322416261
  1.0000015643385143  0.2813256971498572  0.1666812162396404
  1.0000013407290069  0.0313000772662000  0.1666633533536753
  0.8333219142844513  0.7813103760166309  1.0000109434129349
  0.8333574517659906  0.5312998177511630  1.0000098861015030
  0.8333229856614159  0.2813259049911527  1.0000149393059627
  0.8333167293851478  0.0312979221049413  0.9999735319916899
  0.6666883877598277  0.7813083121018907  1.0000112829065191
  0.6666519818276209  0.5312990792026870  1.0000109999011493
  0.6666910719202185  0.2813267881849127  1.0000147904011936
  0.6666566988729276  0.0312962342610057  0.9999739051686234
  0.4999983503039330  0.7812751141794576  0.9999859489026115
  0.4999988764605562  0.5313337469302776  1.0000225897631467
  0.4999951678070917  0.2812946631722879  0.9998899182637048
  0.5000001368015689  0.0313327028927257  0.9999755047818849
  0.3333188994570220  0.7813165372526006  1.0000069862309247
  0.3333195334921313  0.5312987890631423  0.9999542420306131
  0.3333007041594531  0.2813100562807349  0.9999462690172132
  0.3333238197945859  0.0312948089440743  0.9999760382145625
  0.1666878157211956  0.7813167304792246  1.0000069382038217
  0.1666351380343419  0.5312986611131272  0.9999543330392667
  0.1666460441736503  0.2813103739019622  0.9999462522320868
  0.1666525212759615  0.0312946905664567  0.9999760632811492
  0.8333013623627953  0.7812407059167782  0.8332738634094986
  0.8334586313201825  0.5313276440024876  0.8334703914808824
  0.8331144985707094  0.2814013472020043  0.8332066610540899
  0.8332658031451122  0.0313908287037639  0.8332673164747888
  0.8333064208111169  0.7812502577542729  0.6666897495082080
  0.8332415942814624  0.5312325525186572  0.6666823386258028
  0.8330322820680731  0.2813900992058546  0.6665515243895497
  0.8332837945424456  0.0313844930629993  0.6667153369286465
  0.8333312754973764  0.7813287880880717  0.5000180352001017
  0.8332077622149657  0.5312885500633624  0.4999509620667931
  0.8334179987494220  0.2812603547451589  0.5000763941915471
  0.8333229706376519  0.0312844227144920  0.4999834226371824
  0.8333251774484896  0.7813162042564573  0.3333063394751475
  0.8332945003413804  0.5312933329864657  0.3333241137855341
  0.8333220324843389  0.2813228398128736  0.3333285398610228
  0.8333243248424796  0.0312956999604355  0.3333309255173273
  0.8333333940345289  0.7813135536087871  0.1666675967602241
  0.8333216525839198  0.5312894008188410  0.1666454421938587
  0.8333315681749216  0.2813187721210881  0.1666664776392577
  0.8333224924352201  0.0312861993054904  0.1666461497959590
  0.6666697889862678  0.7812323262963029  0.8333390797673956
  0.6667942801348942  0.5314551131953760  0.8335894408019007
  0.6666920173805868  0.2812746788880611  0.8333845748322135
  0.6666638039038806  0.0313284621548839  0.8333270949807059
  0.6666707388234350  0.7812530824746977  0.6666704603880671
  0.6669524756669184  0.5305112433334951  0.6671996099388406
  0.6651467147206332  0.2824696714037979  0.6660266775808252
  0.6666610078212850  0.0312965034125583  0.6667482453205190
  0.6666829869606500  0.7812757408454148  0.5000318187522251
  0.6665923895861410  0.5315956821343226  0.5001886115883721
  0.6669273143248955  0.2811047713665923  0.5000971787914554
  0.6666722539927140  0.0312932895156695  0.4999743907448074
  0.6666700023745583  0.7812854021731064  0.3333410506188325
  0.6665901609838888  0.5312666777600176  0.3334317865343943
  0.6666374528287247  0.2812891423846862  0.3333737127826664
  0.6666690180322712  0.0313000693773580  0.3333162019752535
  0.6666925817305176  0.7813119132866080  0.1666746578919311
  0.6666642027731933  0.5312943184742751  0.1667081410432102
  0.6666783345376739  0.2813250838518613  0.1666806467219783
  0.6666623951064492  0.0313005529962506  0.1666633744505851
  0.4999725299334027  0.7812405937660895  0.8332742869603288
  0.5000104473297590  0.5313283683383458  0.8334705018267311
  0.5000916448810407  0.2814018509931247  0.8332065286144503
  0.5000017407750078  0.0313914801633408  0.8332669455169400
  0.5000006689427361  0.7812527698086658  0.6666721840925345
  0.5002451443787034  0.5305145391108298  0.6671993908193936
  0.5008805461318534  0.2824717322661300  0.6660275012267615
  0.5000870783550684  0.0312976947103966  0.6667472850056527
  0.5000241847455562  0.7812450467934346  0.5000501211522813
  0.5006255352406667  0.5290541080579613  0.5012561784477340
  0.4997190155250344  0.2750109603656531  0.4994217803170204
  0.5000211043717091  0.0316362294836494  0.5000407317783903
  0.4999603019605983  0.7812359544339395  0.3333522584503885
  0.4997855356481682  0.5315701034724611  0.3334771844624007
  0.4998147806568448  0.2811379005745698  0.3329508294679902
  0.5000473447562694  0.0312581720227718  0.3333106016816103
  0.4999841858208544  0.7813235055866189  0.1666795685968529
  0.5000333260396319  0.5312823368537283  0.1668062491046021
  0.4999238353197055  0.2812750361897649  0.1665136633566575
  0.5000257799673276  0.0312903901907295  0.1666588092011256
  0.3333214946836722  0.7813017149677136  0.8333016047984764
  0.3333466176432070  0.5312867088653771  0.8333111258947528
  0.3333381055059628  0.2813362299119971  0.8332543477601763
  0.3333316240697335  0.0313026209463357  0.8333317661530308
  0.3333823487425497  0.7812513768405754  0.6666887635124574
  0.3334406332977580  0.5312318512705325  0.6666816221641519
  0.3335163261264851  0.2813916703280290  0.6665497520988022
  0.3334320716741458  0.0313849134019899  0.6667152251523309
  0.3333503747175511  0.7812745885512006  0.5000322298504156
  0.3335948520886020  0.5315986638553836  0.5001916805554316
  0.3331753114616956  0.2811047042735127  0.5000983318230310
  0.3333053079855049  0.0312961497773439  0.4999751895828660
  0.3333917106000140  0.7812356864169979  0.3333517784503143
  0.3336926592498949  0.5315713247163864  0.3334784624022612
  0.3331417926340677  0.2811363455088439  0.3329570956884739
  0.3332636834530373  0.0312585635614280  0.3333111968989185
  0.3333270630350671  0.7813391338016933  0.1666541508268456
  0.3333054115832362  0.5312974736890784  0.1666103865152307
  0.3332702032312028  0.2812840953079342  0.1665459304529041
  0.3333234554204121  0.0312791640577510  0.1666467144818307
  0.1666647035905051  0.7812812366810212  0.8333285695801764
  0.1666561751337361  0.5313010276570598  0.8333121589567217
  0.1666478560866706  0.2812976234010671  0.8332971358358501
  0.1666669295702990  0.0312970950038877  0.8333338740351154
  0.1667049295182328  0.7813105325861086  0.6666795833757511
  0.1666882234268325  0.5312756279282486  0.6666549399128718
  0.1667473421921206  0.2813146484233322  0.6666652910340221
  0.1666779001825915  0.0312999305458476  0.6666852043706999
  0.1666885918993465  0.7813334189083014  0.5000169764905694
  0.1667458685167447  0.5312898240264164  0.4999530687649497
  0.1666613690114168  0.2812601200612113  0.5000767192677226
  0.1666613987236120  0.0312849097295367  0.4999842022300023
  0.1666707069115963  0.7812848945479401  0.3333406865282845
  0.1668452114421749  0.5312651015976060  0.3334340083597338
  0.1667387175052446  0.2812890723669610  0.3333755986650920
  0.1666477428122970  0.0313027672028061  0.3333171472179359
  0.1666947137102349  0.7813240186427228  0.1666793721859610
  0.1667738739367656  0.5312798705523591  0.1668060357275382
  0.1665911219170969  0.2812746477165227  0.1665161599992745
  0.1666341074967945  0.0312893512770118  0.1666589754826818
  0.9444279815362930  0.6559826169583295  0.8888593209546559
  0.9443774691487140  0.1560123549582252  0.8888303761573313
  0.9443939611520406  0.6559379094199486  0.7222161725170368
  0.9443909094919489  0.1559909206162647  0.7222107541442575
  0.9444259082423516  0.6559885718195108  0.5555449843614593
  0.9444733567488069  0.1559694747365128  0.5555537310129438
  0.9444407381610211  0.6559880504656287  0.3888821358987066
  0.9444450914828180  0.1559869033875218  0.3888897910457831
  0.9444280671904750  0.6559603759671524  0.2222128280045262
  0.9444295751469074  0.1559629521046134  0.2222137340661742
  0.9444436617919124  0.6559892870149349  0.0555568645571002
  0.9444376791064470  0.1559930708490756  0.0555539611810473
  0.8888821293692523  0.9059643019678123  0.9444126628259207
  0.8886811505345764  0.4060153538212369  0.9443177139138406
  0.8888772984224786  0.9059925050635234  0.7777926483237134
  0.8886564753050663  0.4060164865299304  0.7777508904840076
  0.8888709399809616  0.9059892710259821  0.6111382416194229
  0.8883641854188995  0.4060121245494863  0.6111465053174677
  0.8889077384412357  0.9059619693504594  0.4444538841110277
  0.8889973617116154  0.4059760722666604  0.4445237815613255
  0.8888832673702104  0.9059843357850710  0.2777699129928395
  0.8888931530153422  0.4059891952030203  0.2777895907081928
  0.8888776169936712  0.9059818809910021  0.1110889097388031
  0.8889311436290165  0.4059961805719599  0.1111498038358287
  0.7777951000295792  0.6559766083250852  0.8889137656503705
  0.7777529871526540  0.1559924730408712  0.8889200743850196
  0.7776372779609356  0.6556819931858092  0.7221863913522326
  0.7774892489492528  0.1563790916238768  0.7221276844006133
  0.7778002447306815  0.6560216809910159  0.5555927733162900
  0.7779392424136600  0.1559684500349186  0.5555781309695997
  0.7777722609729488  0.6559777010302544  0.3888895998938598
  0.7777779943555754  0.1559691341257542  0.3888842785753776
  0.7777819969008344  0.6559609841556537  0.2222144797426130
  0.7777817403900781  0.1559640876013012  0.2222152963944208
  0.7777806993191018  0.6559647070383955  0.0555631834605848
  0.7777828345563684  0.1559648479412396  0.0555686064053951
  0.7222108588105551  0.9059797996797763  0.9444218561305409
  0.7223783298963515  0.4060155061188231  0.9447585664180752
  0.7222198742575053  0.9059565977589307  0.7778080186681191
  0.7218941378717024  0.4064231084970492  0.7783629807906915
  0.7222198400714404  0.9059845067134468  0.6111315424960139
  0.7202021696236420  0.4063530248424466  0.6108141891405811
  0.7222220838848460  0.9059638711576816  0.4444400033085236
  0.7226633615603686  0.4058017700620703  0.4449322511972533
  0.7222178206720907  0.9059836380115346  0.2777754711014144
  0.7221546404984174  0.4059597331138712  0.2778931752408488
  0.7222112840533540  0.9059822094075582  0.1110884536219863
  0.7222096859307930  0.4059965147040830  0.1111476319279194
  0.6111183710951718  0.6559760573554744  0.8889139502195196
  0.6111683068526760  0.1559918793736209  0.8889222940601753
  0.6111428674476561  0.6558707946446196  0.7222873077873916
  0.6111018520718013  0.1561110350212931  0.7222024086684040
  0.6111208935245976  0.6557895856926033  0.5556587821272738
  0.6117692905548185  0.1560264371571597  0.5559788131906835
  0.6110928420839541  0.6559860497024252  0.3889144763485811